p cnf 1 7
-1672852476745819601 1672852476745819601 7.9357774452072665 0

 1 2.381605568479798 0
 1672852476745819601 2.3293124212682006 0
-1 -1672852476745819601 1 1672852476745819601 7.8152310175179664 0
 1672852476745819601 0.27643052953513214 0
-1672852476745819601 1672852476745819601 1 1.3049768606030387 0
